c CNF file corresponding to a (partial) station packing problem.
p cnf 4784 229
1 2 3 4 5 6 7 8 9 10 11 12 13 14 0
-1 -2 0
-1 -3 0
-1 -4 0
-1 -5 0
-1 -6 0
-1 -7 0
-1 -8 0
-1 -9 0
-1 -10 0
-1 -11 0
-1 -12 0
-1 -13 0
-1 -14 0
-2 -3 0
-2 -4 0
-2 -5 0
-2 -6 0
-2 -7 0
-2 -8 0
-2 -9 0
-2 -10 0
-2 -11 0
-2 -12 0
-2 -13 0
-2 -14 0
-3 -4 0
-3 -5 0
-3 -6 0
-3 -7 0
-3 -8 0
-3 -9 0
-3 -10 0
-3 -11 0
-3 -12 0
-3 -13 0
-3 -14 0
-4 -5 0
-4 -6 0
-4 -7 0
-4 -8 0
-4 -9 0
-4 -10 0
-4 -11 0
-4 -12 0
-4 -13 0
-4 -14 0
-5 -6 0
-5 -7 0
-5 -8 0
-5 -9 0
-5 -10 0
-5 -11 0
-5 -12 0
-5 -13 0
-5 -14 0
-6 -7 0
-6 -8 0
-6 -9 0
-6 -10 0
-6 -11 0
-6 -12 0
-6 -13 0
-6 -14 0
-7 -8 0
-7 -9 0
-7 -10 0
-7 -11 0
-7 -12 0
-7 -13 0
-7 -14 0
-8 -9 0
-8 -10 0
-8 -11 0
-8 -12 0
-8 -13 0
-8 -14 0
-9 -10 0
-9 -11 0
-9 -12 0
-9 -13 0
-9 -14 0
-10 -11 0
-10 -12 0
-10 -13 0
-10 -14 0
-11 -12 0
-11 -13 0
-11 -14 0
-12 -13 0
-12 -14 0
-13 -14 0
4768 4769 4770 4771 4772 4773 4774 4775 4776 4777 4778 4779 4780 4781 4782 4783 4784 0
-4768 -4769 0
-4768 -4770 0
-4768 -4771 0
-4768 -4772 0
-4768 -4773 0
-4768 -4774 0
-4768 -4775 0
-4768 -4776 0
-4768 -4777 0
-4768 -4778 0
-4768 -4779 0
-4768 -4780 0
-4768 -4781 0
-4768 -4782 0
-4768 -4783 0
-4768 -4784 0
-4769 -4770 0
-4769 -4771 0
-4769 -4772 0
-4769 -4773 0
-4769 -4774 0
-4769 -4775 0
-4769 -4776 0
-4769 -4777 0
-4769 -4778 0
-4769 -4779 0
-4769 -4780 0
-4769 -4781 0
-4769 -4782 0
-4769 -4783 0
-4769 -4784 0
-4770 -4771 0
-4770 -4772 0
-4770 -4773 0
-4770 -4774 0
-4770 -4775 0
-4770 -4776 0
-4770 -4777 0
-4770 -4778 0
-4770 -4779 0
-4770 -4780 0
-4770 -4781 0
-4770 -4782 0
-4770 -4783 0
-4770 -4784 0
-4771 -4772 0
-4771 -4773 0
-4771 -4774 0
-4771 -4775 0
-4771 -4776 0
-4771 -4777 0
-4771 -4778 0
-4771 -4779 0
-4771 -4780 0
-4771 -4781 0
-4771 -4782 0
-4771 -4783 0
-4771 -4784 0
-4772 -4773 0
-4772 -4774 0
-4772 -4775 0
-4772 -4776 0
-4772 -4777 0
-4772 -4778 0
-4772 -4779 0
-4772 -4780 0
-4772 -4781 0
-4772 -4782 0
-4772 -4783 0
-4772 -4784 0
-4773 -4774 0
-4773 -4775 0
-4773 -4776 0
-4773 -4777 0
-4773 -4778 0
-4773 -4779 0
-4773 -4780 0
-4773 -4781 0
-4773 -4782 0
-4773 -4783 0
-4773 -4784 0
-4774 -4775 0
-4774 -4776 0
-4774 -4777 0
-4774 -4778 0
-4774 -4779 0
-4774 -4780 0
-4774 -4781 0
-4774 -4782 0
-4774 -4783 0
-4774 -4784 0
-4775 -4776 0
-4775 -4777 0
-4775 -4778 0
-4775 -4779 0
-4775 -4780 0
-4775 -4781 0
-4775 -4782 0
-4775 -4783 0
-4775 -4784 0
-4776 -4777 0
-4776 -4778 0
-4776 -4779 0
-4776 -4780 0
-4776 -4781 0
-4776 -4782 0
-4776 -4783 0
-4776 -4784 0
-4777 -4778 0
-4777 -4779 0
-4777 -4780 0
-4777 -4781 0
-4777 -4782 0
-4777 -4783 0
-4777 -4784 0
-4778 -4779 0
-4778 -4780 0
-4778 -4781 0
-4778 -4782 0
-4778 -4783 0
-4778 -4784 0
-4779 -4780 0
-4779 -4781 0
-4779 -4782 0
-4779 -4783 0
-4779 -4784 0
-4780 -4781 0
-4780 -4782 0
-4780 -4783 0
-4780 -4784 0
-4781 -4782 0
-4781 -4783 0
-4781 -4784 0
-4782 -4783 0
-4782 -4784 0
-4783 -4784 0
